(set-logic QF_LRA)
(declare-fun X0 () Real )
(declare-fun Y0 () Real )
(declare-fun X1 () Real )
(declare-fun Y1 () Real )
(declare-fun X2 () Real )
(declare-fun Y2 () Real )
(declare-fun X3 () Real )
(declare-fun Y3 () Real )
(declare-fun X4 () Real )
(declare-fun Y4 () Real )
(declare-fun X5 () Real )
(declare-fun Y5 () Real )
(declare-fun X6 () Real )
(declare-fun Y6 () Real )
(declare-fun X7 () Real )
(declare-fun Y7 () Real )
(declare-fun X8 () Real )
(declare-fun Y8 () Real )
(declare-fun X9 () Real )
(declare-fun Y9 () Real )
(declare-fun X10 () Real )
(declare-fun Y10 () Real )
(declare-fun X11 () Real )
(declare-fun Y11 () Real )
(declare-fun X12 () Real )
(declare-fun Y12 () Real )
(declare-fun X13 () Real )
(declare-fun Y13 () Real )
(declare-fun X14 () Real )
(declare-fun Y14 () Real )
(declare-fun Z () Real )
(declare-fun k () Real )
(assert (let
(( $goal (>= Z k) ))
(let
((
$phi ( and 
( or ( <= ( + X0 55 ) X1 )  ( <= ( + X1 64 ) X0 )  ( <= ( + Y0 7 ) Y1 )  ( <= ( + Y1 12 ) Y0 )  )
( or ( <= ( + X0 55 ) X2 )  ( <= ( + X2 83 ) X0 )  ( <= ( + Y0 7 ) Y2 )  ( <= ( + Y2 29 ) Y0 )  )
( or ( <= ( + X0 55 ) X3 )  ( <= ( + X3 85 ) X0 )  ( <= ( + Y0 7 ) Y3 )  ( <= ( + Y3 33 ) Y0 )  )
( or ( <= ( + X0 55 ) X4 )  ( <= ( + X4 79 ) X0 )  ( <= ( + Y0 7 ) Y4 )  ( <= ( + Y4 12 ) Y0 )  )
( or ( <= ( + X0 55 ) X5 )  ( <= ( + X5 37 ) X0 )  ( <= ( + Y0 7 ) Y5 )  ( <= ( + Y5 16 ) Y0 )  )
( or ( <= ( + X0 55 ) X6 )  ( <= ( + X6 43 ) X0 )  ( <= ( + Y0 7 ) Y6 )  ( <= ( + Y6 68 ) Y0 )  )
( or ( <= ( + X0 55 ) X7 )  ( <= ( + X7 70 ) X0 )  ( <= ( + Y0 7 ) Y7 )  ( <= ( + Y7 8 ) Y0 )  )
( or ( <= ( + X0 55 ) X8 )  ( <= ( + X8 7 ) X0 )  ( <= ( + Y0 7 ) Y8 )  ( <= ( + Y8 9 ) Y0 )  )
( or ( <= ( + X0 55 ) X9 )  ( <= ( + X9 77 ) X0 )  ( <= ( + Y0 7 ) Y9 )  ( <= ( + Y9 92 ) Y0 )  )
( or ( <= ( + X0 55 ) X10 )  ( <= ( + X10 6 ) X0 )  ( <= ( + Y0 7 ) Y10 )  ( <= ( + Y10 50 ) Y0 )  )
( or ( <= ( + X0 55 ) X11 )  ( <= ( + X11 25 ) X0 )  ( <= ( + Y0 7 ) Y11 )  ( <= ( + Y11 99 ) Y0 )  )
( or ( <= ( + X0 55 ) X12 )  ( <= ( + X12 37 ) X0 )  ( <= ( + Y0 7 ) Y12 )  ( <= ( + Y12 39 ) Y0 )  )
( or ( <= ( + X0 55 ) X13 )  ( <= ( + X13 81 ) X0 )  ( <= ( + Y0 7 ) Y13 )  ( <= ( + Y13 1 ) Y0 )  )
( or ( <= ( + X0 55 ) X14 )  ( <= ( + X14 6 ) X0 )  ( <= ( + Y0 7 ) Y14 )  ( <= ( + Y14 86 ) Y0 )  )
( or ( <= ( + X1 64 ) X2 )  ( <= ( + X2 83 ) X1 )  ( <= ( + Y1 12 ) Y2 )  ( <= ( + Y2 29 ) Y1 )  )
( or ( <= ( + X1 64 ) X3 )  ( <= ( + X3 85 ) X1 )  ( <= ( + Y1 12 ) Y3 )  ( <= ( + Y3 33 ) Y1 )  )
( or ( <= ( + X1 64 ) X4 )  ( <= ( + X4 79 ) X1 )  ( <= ( + Y1 12 ) Y4 )  ( <= ( + Y4 12 ) Y1 )  )
( or ( <= ( + X1 64 ) X5 )  ( <= ( + X5 37 ) X1 )  ( <= ( + Y1 12 ) Y5 )  ( <= ( + Y5 16 ) Y1 )  )
( or ( <= ( + X1 64 ) X6 )  ( <= ( + X6 43 ) X1 )  ( <= ( + Y1 12 ) Y6 )  ( <= ( + Y6 68 ) Y1 )  )
( or ( <= ( + X1 64 ) X7 )  ( <= ( + X7 70 ) X1 )  ( <= ( + Y1 12 ) Y7 )  ( <= ( + Y7 8 ) Y1 )  )
( or ( <= ( + X1 64 ) X8 )  ( <= ( + X8 7 ) X1 )  ( <= ( + Y1 12 ) Y8 )  ( <= ( + Y8 9 ) Y1 )  )
( or ( <= ( + X1 64 ) X9 )  ( <= ( + X9 77 ) X1 )  ( <= ( + Y1 12 ) Y9 )  ( <= ( + Y9 92 ) Y1 )  )
( or ( <= ( + X1 64 ) X10 )  ( <= ( + X10 6 ) X1 )  ( <= ( + Y1 12 ) Y10 )  ( <= ( + Y10 50 ) Y1 )  )
( or ( <= ( + X1 64 ) X11 )  ( <= ( + X11 25 ) X1 )  ( <= ( + Y1 12 ) Y11 )  ( <= ( + Y11 99 ) Y1 )  )
( or ( <= ( + X1 64 ) X12 )  ( <= ( + X12 37 ) X1 )  ( <= ( + Y1 12 ) Y12 )  ( <= ( + Y12 39 ) Y1 )  )
( or ( <= ( + X1 64 ) X13 )  ( <= ( + X13 81 ) X1 )  ( <= ( + Y1 12 ) Y13 )  ( <= ( + Y13 1 ) Y1 )  )
( or ( <= ( + X1 64 ) X14 )  ( <= ( + X14 6 ) X1 )  ( <= ( + Y1 12 ) Y14 )  ( <= ( + Y14 86 ) Y1 )  )
( or ( <= ( + X2 83 ) X3 )  ( <= ( + X3 85 ) X2 )  ( <= ( + Y2 29 ) Y3 )  ( <= ( + Y3 33 ) Y2 )  )
( or ( <= ( + X2 83 ) X4 )  ( <= ( + X4 79 ) X2 )  ( <= ( + Y2 29 ) Y4 )  ( <= ( + Y4 12 ) Y2 )  )
( or ( <= ( + X2 83 ) X5 )  ( <= ( + X5 37 ) X2 )  ( <= ( + Y2 29 ) Y5 )  ( <= ( + Y5 16 ) Y2 )  )
( or ( <= ( + X2 83 ) X6 )  ( <= ( + X6 43 ) X2 )  ( <= ( + Y2 29 ) Y6 )  ( <= ( + Y6 68 ) Y2 )  )
( or ( <= ( + X2 83 ) X7 )  ( <= ( + X7 70 ) X2 )  ( <= ( + Y2 29 ) Y7 )  ( <= ( + Y7 8 ) Y2 )  )
( or ( <= ( + X2 83 ) X8 )  ( <= ( + X8 7 ) X2 )  ( <= ( + Y2 29 ) Y8 )  ( <= ( + Y8 9 ) Y2 )  )
( or ( <= ( + X2 83 ) X9 )  ( <= ( + X9 77 ) X2 )  ( <= ( + Y2 29 ) Y9 )  ( <= ( + Y9 92 ) Y2 )  )
( or ( <= ( + X2 83 ) X10 )  ( <= ( + X10 6 ) X2 )  ( <= ( + Y2 29 ) Y10 )  ( <= ( + Y10 50 ) Y2 )  )
( or ( <= ( + X2 83 ) X11 )  ( <= ( + X11 25 ) X2 )  ( <= ( + Y2 29 ) Y11 )  ( <= ( + Y11 99 ) Y2 )  )
( or ( <= ( + X2 83 ) X12 )  ( <= ( + X12 37 ) X2 )  ( <= ( + Y2 29 ) Y12 )  ( <= ( + Y12 39 ) Y2 )  )
( or ( <= ( + X2 83 ) X13 )  ( <= ( + X13 81 ) X2 )  ( <= ( + Y2 29 ) Y13 )  ( <= ( + Y13 1 ) Y2 )  )
( or ( <= ( + X2 83 ) X14 )  ( <= ( + X14 6 ) X2 )  ( <= ( + Y2 29 ) Y14 )  ( <= ( + Y14 86 ) Y2 )  )
( or ( <= ( + X3 85 ) X4 )  ( <= ( + X4 79 ) X3 )  ( <= ( + Y3 33 ) Y4 )  ( <= ( + Y4 12 ) Y3 )  )
( or ( <= ( + X3 85 ) X5 )  ( <= ( + X5 37 ) X3 )  ( <= ( + Y3 33 ) Y5 )  ( <= ( + Y5 16 ) Y3 )  )
( or ( <= ( + X3 85 ) X6 )  ( <= ( + X6 43 ) X3 )  ( <= ( + Y3 33 ) Y6 )  ( <= ( + Y6 68 ) Y3 )  )
( or ( <= ( + X3 85 ) X7 )  ( <= ( + X7 70 ) X3 )  ( <= ( + Y3 33 ) Y7 )  ( <= ( + Y7 8 ) Y3 )  )
( or ( <= ( + X3 85 ) X8 )  ( <= ( + X8 7 ) X3 )  ( <= ( + Y3 33 ) Y8 )  ( <= ( + Y8 9 ) Y3 )  )
( or ( <= ( + X3 85 ) X9 )  ( <= ( + X9 77 ) X3 )  ( <= ( + Y3 33 ) Y9 )  ( <= ( + Y9 92 ) Y3 )  )
( or ( <= ( + X3 85 ) X10 )  ( <= ( + X10 6 ) X3 )  ( <= ( + Y3 33 ) Y10 )  ( <= ( + Y10 50 ) Y3 )  )
( or ( <= ( + X3 85 ) X11 )  ( <= ( + X11 25 ) X3 )  ( <= ( + Y3 33 ) Y11 )  ( <= ( + Y11 99 ) Y3 )  )
( or ( <= ( + X3 85 ) X12 )  ( <= ( + X12 37 ) X3 )  ( <= ( + Y3 33 ) Y12 )  ( <= ( + Y12 39 ) Y3 )  )
( or ( <= ( + X3 85 ) X13 )  ( <= ( + X13 81 ) X3 )  ( <= ( + Y3 33 ) Y13 )  ( <= ( + Y13 1 ) Y3 )  )
( or ( <= ( + X3 85 ) X14 )  ( <= ( + X14 6 ) X3 )  ( <= ( + Y3 33 ) Y14 )  ( <= ( + Y14 86 ) Y3 )  )
( or ( <= ( + X4 79 ) X5 )  ( <= ( + X5 37 ) X4 )  ( <= ( + Y4 12 ) Y5 )  ( <= ( + Y5 16 ) Y4 )  )
( or ( <= ( + X4 79 ) X6 )  ( <= ( + X6 43 ) X4 )  ( <= ( + Y4 12 ) Y6 )  ( <= ( + Y6 68 ) Y4 )  )
( or ( <= ( + X4 79 ) X7 )  ( <= ( + X7 70 ) X4 )  ( <= ( + Y4 12 ) Y7 )  ( <= ( + Y7 8 ) Y4 )  )
( or ( <= ( + X4 79 ) X8 )  ( <= ( + X8 7 ) X4 )  ( <= ( + Y4 12 ) Y8 )  ( <= ( + Y8 9 ) Y4 )  )
( or ( <= ( + X4 79 ) X9 )  ( <= ( + X9 77 ) X4 )  ( <= ( + Y4 12 ) Y9 )  ( <= ( + Y9 92 ) Y4 )  )
( or ( <= ( + X4 79 ) X10 )  ( <= ( + X10 6 ) X4 )  ( <= ( + Y4 12 ) Y10 )  ( <= ( + Y10 50 ) Y4 )  )
( or ( <= ( + X4 79 ) X11 )  ( <= ( + X11 25 ) X4 )  ( <= ( + Y4 12 ) Y11 )  ( <= ( + Y11 99 ) Y4 )  )
( or ( <= ( + X4 79 ) X12 )  ( <= ( + X12 37 ) X4 )  ( <= ( + Y4 12 ) Y12 )  ( <= ( + Y12 39 ) Y4 )  )
( or ( <= ( + X4 79 ) X13 )  ( <= ( + X13 81 ) X4 )  ( <= ( + Y4 12 ) Y13 )  ( <= ( + Y13 1 ) Y4 )  )
( or ( <= ( + X4 79 ) X14 )  ( <= ( + X14 6 ) X4 )  ( <= ( + Y4 12 ) Y14 )  ( <= ( + Y14 86 ) Y4 )  )
( or ( <= ( + X5 37 ) X6 )  ( <= ( + X6 43 ) X5 )  ( <= ( + Y5 16 ) Y6 )  ( <= ( + Y6 68 ) Y5 )  )
( or ( <= ( + X5 37 ) X7 )  ( <= ( + X7 70 ) X5 )  ( <= ( + Y5 16 ) Y7 )  ( <= ( + Y7 8 ) Y5 )  )
( or ( <= ( + X5 37 ) X8 )  ( <= ( + X8 7 ) X5 )  ( <= ( + Y5 16 ) Y8 )  ( <= ( + Y8 9 ) Y5 )  )
( or ( <= ( + X5 37 ) X9 )  ( <= ( + X9 77 ) X5 )  ( <= ( + Y5 16 ) Y9 )  ( <= ( + Y9 92 ) Y5 )  )
( or ( <= ( + X5 37 ) X10 )  ( <= ( + X10 6 ) X5 )  ( <= ( + Y5 16 ) Y10 )  ( <= ( + Y10 50 ) Y5 )  )
( or ( <= ( + X5 37 ) X11 )  ( <= ( + X11 25 ) X5 )  ( <= ( + Y5 16 ) Y11 )  ( <= ( + Y11 99 ) Y5 )  )
( or ( <= ( + X5 37 ) X12 )  ( <= ( + X12 37 ) X5 )  ( <= ( + Y5 16 ) Y12 )  ( <= ( + Y12 39 ) Y5 )  )
( or ( <= ( + X5 37 ) X13 )  ( <= ( + X13 81 ) X5 )  ( <= ( + Y5 16 ) Y13 )  ( <= ( + Y13 1 ) Y5 )  )
( or ( <= ( + X5 37 ) X14 )  ( <= ( + X14 6 ) X5 )  ( <= ( + Y5 16 ) Y14 )  ( <= ( + Y14 86 ) Y5 )  )
( or ( <= ( + X6 43 ) X7 )  ( <= ( + X7 70 ) X6 )  ( <= ( + Y6 68 ) Y7 )  ( <= ( + Y7 8 ) Y6 )  )
( or ( <= ( + X6 43 ) X8 )  ( <= ( + X8 7 ) X6 )  ( <= ( + Y6 68 ) Y8 )  ( <= ( + Y8 9 ) Y6 )  )
( or ( <= ( + X6 43 ) X9 )  ( <= ( + X9 77 ) X6 )  ( <= ( + Y6 68 ) Y9 )  ( <= ( + Y9 92 ) Y6 )  )
( or ( <= ( + X6 43 ) X10 )  ( <= ( + X10 6 ) X6 )  ( <= ( + Y6 68 ) Y10 )  ( <= ( + Y10 50 ) Y6 )  )
( or ( <= ( + X6 43 ) X11 )  ( <= ( + X11 25 ) X6 )  ( <= ( + Y6 68 ) Y11 )  ( <= ( + Y11 99 ) Y6 )  )
( or ( <= ( + X6 43 ) X12 )  ( <= ( + X12 37 ) X6 )  ( <= ( + Y6 68 ) Y12 )  ( <= ( + Y12 39 ) Y6 )  )
( or ( <= ( + X6 43 ) X13 )  ( <= ( + X13 81 ) X6 )  ( <= ( + Y6 68 ) Y13 )  ( <= ( + Y13 1 ) Y6 )  )
( or ( <= ( + X6 43 ) X14 )  ( <= ( + X14 6 ) X6 )  ( <= ( + Y6 68 ) Y14 )  ( <= ( + Y14 86 ) Y6 )  )
( or ( <= ( + X7 70 ) X8 )  ( <= ( + X8 7 ) X7 )  ( <= ( + Y7 8 ) Y8 )  ( <= ( + Y8 9 ) Y7 )  )
( or ( <= ( + X7 70 ) X9 )  ( <= ( + X9 77 ) X7 )  ( <= ( + Y7 8 ) Y9 )  ( <= ( + Y9 92 ) Y7 )  )
( or ( <= ( + X7 70 ) X10 )  ( <= ( + X10 6 ) X7 )  ( <= ( + Y7 8 ) Y10 )  ( <= ( + Y10 50 ) Y7 )  )
( or ( <= ( + X7 70 ) X11 )  ( <= ( + X11 25 ) X7 )  ( <= ( + Y7 8 ) Y11 )  ( <= ( + Y11 99 ) Y7 )  )
( or ( <= ( + X7 70 ) X12 )  ( <= ( + X12 37 ) X7 )  ( <= ( + Y7 8 ) Y12 )  ( <= ( + Y12 39 ) Y7 )  )
( or ( <= ( + X7 70 ) X13 )  ( <= ( + X13 81 ) X7 )  ( <= ( + Y7 8 ) Y13 )  ( <= ( + Y13 1 ) Y7 )  )
( or ( <= ( + X7 70 ) X14 )  ( <= ( + X14 6 ) X7 )  ( <= ( + Y7 8 ) Y14 )  ( <= ( + Y14 86 ) Y7 )  )
( or ( <= ( + X8 7 ) X9 )  ( <= ( + X9 77 ) X8 )  ( <= ( + Y8 9 ) Y9 )  ( <= ( + Y9 92 ) Y8 )  )
( or ( <= ( + X8 7 ) X10 )  ( <= ( + X10 6 ) X8 )  ( <= ( + Y8 9 ) Y10 )  ( <= ( + Y10 50 ) Y8 )  )
( or ( <= ( + X8 7 ) X11 )  ( <= ( + X11 25 ) X8 )  ( <= ( + Y8 9 ) Y11 )  ( <= ( + Y11 99 ) Y8 )  )
( or ( <= ( + X8 7 ) X12 )  ( <= ( + X12 37 ) X8 )  ( <= ( + Y8 9 ) Y12 )  ( <= ( + Y12 39 ) Y8 )  )
( or ( <= ( + X8 7 ) X13 )  ( <= ( + X13 81 ) X8 )  ( <= ( + Y8 9 ) Y13 )  ( <= ( + Y13 1 ) Y8 )  )
( or ( <= ( + X8 7 ) X14 )  ( <= ( + X14 6 ) X8 )  ( <= ( + Y8 9 ) Y14 )  ( <= ( + Y14 86 ) Y8 )  )
( or ( <= ( + X9 77 ) X10 )  ( <= ( + X10 6 ) X9 )  ( <= ( + Y9 92 ) Y10 )  ( <= ( + Y10 50 ) Y9 )  )
( or ( <= ( + X9 77 ) X11 )  ( <= ( + X11 25 ) X9 )  ( <= ( + Y9 92 ) Y11 )  ( <= ( + Y11 99 ) Y9 )  )
( or ( <= ( + X9 77 ) X12 )  ( <= ( + X12 37 ) X9 )  ( <= ( + Y9 92 ) Y12 )  ( <= ( + Y12 39 ) Y9 )  )
( or ( <= ( + X9 77 ) X13 )  ( <= ( + X13 81 ) X9 )  ( <= ( + Y9 92 ) Y13 )  ( <= ( + Y13 1 ) Y9 )  )
( or ( <= ( + X9 77 ) X14 )  ( <= ( + X14 6 ) X9 )  ( <= ( + Y9 92 ) Y14 )  ( <= ( + Y14 86 ) Y9 )  )
( or ( <= ( + X10 6 ) X11 )  ( <= ( + X11 25 ) X10 )  ( <= ( + Y10 50 ) Y11 )  ( <= ( + Y11 99 ) Y10 )  )
( or ( <= ( + X10 6 ) X12 )  ( <= ( + X12 37 ) X10 )  ( <= ( + Y10 50 ) Y12 )  ( <= ( + Y12 39 ) Y10 )  )
( or ( <= ( + X10 6 ) X13 )  ( <= ( + X13 81 ) X10 )  ( <= ( + Y10 50 ) Y13 )  ( <= ( + Y13 1 ) Y10 )  )
( or ( <= ( + X10 6 ) X14 )  ( <= ( + X14 6 ) X10 )  ( <= ( + Y10 50 ) Y14 )  ( <= ( + Y14 86 ) Y10 )  )
( or ( <= ( + X11 25 ) X12 )  ( <= ( + X12 37 ) X11 )  ( <= ( + Y11 99 ) Y12 )  ( <= ( + Y12 39 ) Y11 )  )
( or ( <= ( + X11 25 ) X13 )  ( <= ( + X13 81 ) X11 )  ( <= ( + Y11 99 ) Y13 )  ( <= ( + Y13 1 ) Y11 )  )
( or ( <= ( + X11 25 ) X14 )  ( <= ( + X14 6 ) X11 )  ( <= ( + Y11 99 ) Y14 )  ( <= ( + Y14 86 ) Y11 )  )
( or ( <= ( + X12 37 ) X13 )  ( <= ( + X13 81 ) X12 )  ( <= ( + Y12 39 ) Y13 )  ( <= ( + Y13 1 ) Y12 )  )
( or ( <= ( + X12 37 ) X14 )  ( <= ( + X14 6 ) X12 )  ( <= ( + Y12 39 ) Y14 )  ( <= ( + Y14 86 ) Y12 )  )
( or ( <= ( + X13 81 ) X14 )  ( <= ( + X14 6 ) X13 )  ( <= ( + Y13 1 ) Y14 )  ( <= ( + Y14 86 ) Y13 )  )
( >= X0 0)
( <= ( + X0 55) Z)
( >= Y0 0)
( <= ( + Y0 7 ) 193)
( >= X1 0)
( <= ( + X1 64) Z)
( >= Y1 0)
( <= ( + Y1 12 ) 193)
( >= X2 0)
( <= ( + X2 83) Z)
( >= Y2 0)
( <= ( + Y2 29 ) 193)
( >= X3 0)
( <= ( + X3 85) Z)
( >= Y3 0)
( <= ( + Y3 33 ) 193)
( >= X4 0)
( <= ( + X4 79) Z)
( >= Y4 0)
( <= ( + Y4 12 ) 193)
( >= X5 0)
( <= ( + X5 37) Z)
( >= Y5 0)
( <= ( + Y5 16 ) 193)
( >= X6 0)
( <= ( + X6 43) Z)
( >= Y6 0)
( <= ( + Y6 68 ) 193)
( >= X7 0)
( <= ( + X7 70) Z)
( >= Y7 0)
( <= ( + Y7 8 ) 193)
( >= X8 0)
( <= ( + X8 7) Z)
( >= Y8 0)
( <= ( + Y8 9 ) 193)
( >= X9 0)
( <= ( + X9 77) Z)
( >= Y9 0)
( <= ( + Y9 92 ) 193)
( >= X10 0)
( <= ( + X10 6) Z)
( >= Y10 0)
( <= ( + Y10 50 ) 193)
( >= X11 0)
( <= ( + X11 25) Z)
( >= Y11 0)
( <= ( + Y11 99 ) 193)
( >= X12 0)
( <= ( + X12 37) Z)
( >= Y12 0)
( <= ( + Y12 39 ) 193)
( >= X13 0)
( <= ( + X13 81) Z)
( >= Y13 0)
( <= ( + Y13 1 ) 193)
( >= X14 0)
( <= ( + X14 6) Z)
( >= Y14 0)
( <= ( + Y14 86 ) 193)
) )
)(=> $phi $goal))))